SystemName	Ti2CTx_OH
SystemLabel	Ti2CTx_OH
DM.InitialSpinPol	0.2
DM.MixingWeight	0.1
DM.NumberPulay	5
DM.Tolerance	0.0001
DM.UseSaveDM	True
ElectronicTemperature	300 K
MaxSCFIterations	200
PAO.BasisSize	DZP
PAO.EnergyShift	0.02 Ry
PAO.SplitNorm	0.15
SaveDeltaRho	True
SaveElectrostaticPotential	True
SaveRho	True
SolutionMethod	diagon
VDW.method	DFT-D2
VDW.radius	40.0
VDW.scale	0.75
WriteDenchar	True
WriteEigenvalues	True
XC.authors	PBE
XC.functional	GGA
XML.Write	True
SCFMustConverge	True
Spin	polarized
XC.functional	GGA
XC.authors	PW91
MeshCutoff	1360.5693012183622	eV
PAO.EnergyShift	0.27211386024367246	eV
NumberOfSpecies	4
NumberOfAtoms	7
%block ChemicalSpecieslabel
    1 22 Ti.1 Ti.1.psml
    2 6 C.2 C.2.psml
    3 8 O.3 O.3.psml
    4 1 H.4 H.4.psml
%endblock ChemicalSpecieslabel
%block PAO.BasisSizes
    Ti.1	DZP
    C.2	DZP
    O.3	DZP
    H.4	DZP
%endblock PAO.BasisSizes
LatticeConstant	1.0 Ang
%block LatticeVectors
    3.2 0.0 0.0
    -1.6 2.7712812921102037 0.0
    0.0 0.0 20.0
%endblock LatticeVectors
AtomicCoordinatesFormat	Ang
%block AtomicCoordinatesAndAtomicSpecies
    -1.480297366166875e-17 1.8475208614068024 8.0 1
    1.5999999999999999 0.9237604307034012 9.0 1
    0.0 0.0 10.0 2
    1.5999999999999999 0.9237604307034012 10.0 3
    2.0999999999999996 0.9237604307034012 10.5 4
    -1.480297366166875e-17 1.8475208614068024 9.0 3
    0.5 1.8475208614068024 9.5 4
%endblock AtomicCoordinatesAndAtomicSpecies
%block DM.InitSpin
%endblock DM.InitSpin
#KPoint grid
%block kgrid_Monkhorst_Pack
     6       0       0  0.0
     0       6       0  0.0
     0       0       1  0.0
%endblock kgrid_Monkhorst_Pack
