SystemName	Ti2NTx
SystemLabel	Ti2NTx
DM.InitialSpinPol	0.2
DM.MixingWeight	0.1
DM.NumberPulay	5
DM.Tolerance	1.0E-4
DM.UseSaveDM	True
ElectronicTemperature	300 K
MD.ConstantVolume	False
MD.MaxForceTol	0.04 eV/Ang
MD.MaxStressTol	1.0 GPa
MD.NumCGsteps	100
MD.TypeOfRun	CG
MD.VariableCell	True
MaxSCFIterations	200
PAO.BasisSize	DZP
PAO.EnergyShift	0.01 Ry
PAO.SoftDefault	True
PAO.SplitNorm	0.15
SCF.DM.Tolerance	1.0E-4
SCF.EDM.Tolerance	1.0E-4 eV
SCF.H.Tolerance	1.0E-4 eV
SaveDeltaRho	True
SaveElectrostaticPotential	True
SaveRho	True
SolutionMethod	diagon
WriteDenchar	True
WriteEigenvalues	True
XC.functional	GGA
XML.Write	True
SCFMustConverge	True
Spin	polarized
XC.functional	GGA
XC.authors	PW91
MeshCutoff	2040.8539518275434	eV
PAO.EnergyShift	0.01	eV
NumberOfSpecies	3
NumberOfAtoms	5
%block ChemicalSpecieslabel
    1 22 Ti.1 Ti.1.psml
    2 7 N.2 N.2.psml
    3 8 O.3 O.3.psml
%endblock ChemicalSpecieslabel
%block PAO.BasisSizes
    Ti.1	DZP
    N.2	DZP
    O.3	DZP
%endblock PAO.BasisSizes
LatticeConstant	1.0 Ang
%block LatticeVectors
    3.2 0.0 0.0
    -1.6 2.7712812921102037 0.0
    0.0 0.0 25.0
%endblock LatticeVectors
AtomicCoordinatesFormat	Ang
%block AtomicCoordinatesAndAtomicSpecies
    0.00047295593126659785 1.847247827860975 10.00023410006233 1
    1.5996256201713457 0.9239765492034715 11.250364340771956 1
    -2.1947305534696358e-05 1.2675539537803479e-05 12.49961086167079 2
    0.00015579306936353517 1.847430924211461 13.750449548973629 3
    1.5997548570487614 0.9239019501088419 8.749475562866266 3
%endblock AtomicCoordinatesAndAtomicSpecies
%block DM.InitSpin
%endblock DM.InitSpin
DM.UseSaveDM	True
#KPoint grid
%block kgrid_Monkhorst_Pack
     6       0       0  0.0
     0       6       0  0.0
     0       0       1  0.0
%endblock kgrid_Monkhorst_Pack
